Optimal - objective value 354.63000000
      3 x0_4                   1                    6.87
      8 x0_9                   1         9.13999999999998
     17 x1_6                   1                       0
     30 x2_7                   1                       0
     47 x3_12                  1                    1.17
     58 x4_11                  1                       0
     67 x5_8                   1                       0
     77 x6_5                   1                       0
     84 x7_0                   1                   37.09
     96 x8_0                   1                   42.57
    111 x9_3                   1                       0
    122 x10_2                  1         6.39999999999999
    133 x11_1                  1                       0
    154 x12_10                 1         4.04000000000002
    156 u1       9.99999999999999                       0
    157 u2                    21                       0
    158 u3       8.99999999999999                       0
    159 u4                     5                       0
    160 u5                    24                       0
    161 u6                    14                       0
    162 u7                    24                       0
    163 u8                    34                       0
    164 u9                     3                       0
    165 u10                   19                       0
    166 u11                    7                       0
    167 u12                   11                       0
